p cnf 12 50 
7 2 -9 0
3 -8 2 0
3 -6 -10 0
-3 2 -7 0
1 -12 -6 0
-4 5 -2 0
10 -4 8 0
6 -9 5 0
-12 8 -2 0
12 -7 9 0
-9 -11 6 0
-10 -12 1 0
8 -7 -1 0
3 4 1 0
-12 -2 6 0
-9 -6 -11 0
-6 -1 3 0
-4 5 12 0
-8 12 4 0
-7 5 -10 0
-5 8 -4 0
-8 7 -1 0
5 -1 4 0
10 12 -5 0
-2 -11 -10 0
12 -7 9 0
6 -3 4 0
-6 10 7 0
-11 -3 -9 0
11 6 10 0
-6 1 12 0
-4 -7 -1 0
5 -7 -11 0
11 -4 -6 0
-11 4 -9 0
5 -6 8 0
-6 -1 -10 0
-11 4 -10 0
7 3 -6 0
-11 -3 -4 0
-7 -12 -4 0
-5 -12 11 0
-3 7 11 0
-5 12 -3 0
3 8 11 0
10 12 -7 0
-8 10 11 0
10 -6 5 0
9 -6 -1 0
4 -6 10 0
